(set-logic LIA)
(synth-fun next ((water Int) (methane Int) (pump Bool) ) Int
	((Start Int) (Var Int) (StartBool Bool))
	((Start Int (
				 1
				 (ite StartBool Start Start)))

	(Var Int (
			 1
			 2
			 6
			 75
			 597
			 water
			 methane
			 (+ Var Var)						
			 (- Var Var)						
			 (* Var Var)))

	(StartBool Bool (
				 	 pump
					(= Var Var)						
					(>= Var Var)						
					(<= Var Var)						
					(and StartBool StartBool)			
					(or  StartBool StartBool)				
					(not StartBool)))))

(constraint (= (next 82 598 false ) 1))
(constraint (= (next 72 595 false ) 1))
(constraint (= (next 72 598 false ) 1))

(check-synth)
